
List of user-set options:

                                    Name   Value                used
                           compl_inf_tol = 1                     yes
                         constr_viol_tol = 1                     yes
                            dual_inf_tol = 1000                  yes
                           linear_solver = ma97                  yes
                              ma86_small = 1e-30                  no
                                  ma86_u = 0.0001                 no
                              ma97_order = best                  yes
                              ma97_small = 1e-30                 yes
                            ma97_switch1 = at_start              yes
                            ma97_switch2 = od_hd_reuse           yes
                                  ma97_u = 1e-06                 yes
                               ma97_umax = 0.5                   yes
                                max_iter = 1000                  yes
                    max_refinement_steps = 20                    yes
                    min_refinement_steps = 5                     yes
                                 mu_init = 1e-06                 yes
           mu_superlinear_decrease_power = 1.25                  yes
                   nlp_scaling_min_value = 1e-08                 yes
                        option_file_name = Preset_Case:_16_pf.opt  yes
                             output_file = ./tmp/Preset_Case:_16_pf.output  yes
                      print_user_options = yes                   yes
        required_infeasibility_reduction = 1                      no
                                     tol = 1e-08                 yes
                   warm_start_bound_frac = 1e-20                 yes
                   warm_start_bound_push = 1e-20                 yes
                   warm_start_init_point = yes                   yes
              warm_start_mult_bound_push = 1e-20                 yes
                warm_start_mult_init_max = 1e+40                 yes
             warm_start_slack_bound_frac = 1e-20                 yes
             warm_start_slack_bound_push = 1e-20                 yes

******************************************************************************
This program contains Ipopt, a library for large-scale nonlinear optimization.
 Ipopt is released as open source code under the Eclipse Public License (EPL).
         For more information visit http://projects.coin-or.org/Ipopt
******************************************************************************

This is Ipopt version 3.12.10, running with linear solver ma97.

Number of nonzeros in equality constraint Jacobian...:   123442
Number of nonzeros in inequality constraint Jacobian.:      213
Number of nonzeros in Lagrangian Hessian.............:    49069

Total number of variables............................:    31591
                     variables with only lower bounds:    12912
                variables with lower and upper bounds:    15130
                     variables with only upper bounds:        0
Total number of equality constraints.................:    31483
Total number of inequality constraints...............:       25
        inequality constraints with only lower bounds:        4
   inequality constraints with lower and upper bounds:        0
        inequality constraints with only upper bounds:       21

iter    objective    inf_pr   inf_du lg(mu)  ||d||  lg(rg) alpha_du alpha_pr  ls
   0 -7.3860341e+00 5.90e-03 1.56e-01  -6.0 0.00e+00    -  0.00e+00 0.00e+00   0
   1 -7.3872345e+00 5.11e-03 4.15e+01  -6.0 5.58e+03    -  1.85e-01 1.74e-03h  1
   2 -7.5755563e+00 4.05e+00 1.09e+03  -6.0 5.56e+03    -  3.49e-02 2.74e-01f  1
   3 -7.6302254e+00 3.61e+00 1.00e+03  -6.0 1.26e+03    -  1.11e-01 1.62e-01h  1
   4 -7.6237631e+00 2.98e+00 2.04e+03  -6.0 7.58e+00  -4.0 1.15e-01 1.74e-01h  1
   5 -7.8007329e+00 9.48e+00 1.38e+05  -6.0 1.09e+03    -  6.47e-05 6.79e-01h  1
   6 -7.7988242e+00 9.41e+00 1.37e+05  -6.0 1.93e+03    -  3.13e-02 7.10e-03h  1
   7 -7.7815663e+00 8.98e+00 1.30e+05  -6.0 1.61e+02  -4.5 9.20e-02 4.81e-02h  1
   8 -7.6954139e+00 6.97e+00 9.21e+04  -6.0 1.52e+02  -5.0 1.06e-01 2.94e-01h  1
   9 -7.6945612e+00 4.21e+00 3.34e+04  -6.0 8.96e+01  -5.4 4.53e-01 6.37e-01h  1
iter    objective    inf_pr   inf_du lg(mu)  ||d||  lg(rg) alpha_du alpha_pr  ls
  10 -7.7178075e+00 4.91e+00 2.98e+04  -6.0 4.57e+03    -  2.33e-02 1.10e-01h  1
  11 -7.7274015e+00 4.54e+00 1.54e+05  -6.0 1.24e+02  -5.9 3.58e-02 7.59e-02h  1
  12 -7.8418973e+00 3.52e+00 7.76e+05  -6.0 7.63e+01  -6.4 1.51e-01 9.97e-01h  1
  13 -7.8037472e+00 5.49e-01 3.99e+04  -6.0 2.03e+02  -6.9 4.43e-01 1.00e+00h  1
  14 -7.8137710e+00 1.56e+00 3.95e+04  -6.0 9.62e+03    -  2.22e-02 2.74e-02h  2
  15 -7.8210442e+00 1.41e+00 1.22e+05  -6.0 1.04e+03    -  6.12e-01 1.06e-01h  1
  16 -7.8530956e+00 2.46e+00 9.15e+04  -6.0 1.05e+03    -  6.94e-01 5.18e-01h  1
  17 -7.8793198e+00 4.02e+00 3.38e+05  -6.0 1.25e+03    -  1.97e-03 5.31e-01h  1
  18r-7.8793198e+00 4.02e+00 1.00e+03   0.0 0.00e+00    -  0.00e+00 2.45e-07R  2
  19r-7.8879308e+00 4.01e+00 1.00e+03   0.0 1.03e+04    -  7.45e-06 1.59e-06f  1
iter    objective    inf_pr   inf_du lg(mu)  ||d||  lg(rg) alpha_du alpha_pr  ls
  20 -7.8868142e+00 3.67e+00 4.47e+05  -6.0 2.43e+00    -  3.63e-01 8.66e-02h  1
  21 -7.8820848e+00 2.18e+00 2.42e+06  -6.0 2.21e+00    -  8.66e-02 4.06e-01h  1
  22 -7.8754194e+00 2.35e-03 4.80e+01  -6.0 1.31e+00    -  8.08e-01 1.00e+00h  1
  23 -7.8754852e+00 2.31e-03 5.25e+01  -6.0 1.13e+00    -  6.93e-01 1.56e-02h  1
  24 -7.8824943e+00 9.16e-03 9.67e+00  -6.0 2.82e+00    -  5.85e-01 7.99e-01f  1
  25 -7.8849903e+00 4.80e-03 3.41e+01  -6.0 1.52e+00    -  6.26e-01 8.15e-01h  1
  26 -7.8867670e+00 5.22e-03 1.09e+02  -6.0 4.08e+00    -  8.80e-01 3.26e-01f  1
  27 -7.8899313e+00 2.39e-02 1.18e+02  -6.0 2.28e+01    -  7.05e-01 1.00e+00h  1
  28 -7.8908350e+00 1.73e-02 6.89e+02  -6.0 6.56e+01    -  6.10e-01 2.52e-01h  1
  29 -7.8957322e+00 2.44e-01 1.38e+02  -6.0 1.43e+02    -  9.33e-01 1.00e+00h  1
iter    objective    inf_pr   inf_du lg(mu)  ||d||  lg(rg) alpha_du alpha_pr  ls
  30 -7.8982573e+00 3.38e-01 1.90e+03  -6.0 3.95e+02    -  4.33e-01 2.75e-01h  1
  31 -7.9057891e+00 1.55e+00 1.25e+03  -6.0 3.03e+02    -  9.27e-01 1.00e+00h  1
  32 -7.9075404e+00 1.09e+00 8.45e+03  -6.0 1.19e+02    -  4.37e-01 2.98e-01h  1
  33 -7.9142502e+00 5.46e-02 2.78e+03  -6.0 1.11e+02    -  9.80e-01 1.00e+00h  1
  34 -7.9176056e+00 4.07e-02 2.07e+04  -6.0 1.19e+02    -  3.74e-01 3.12e-01h  1
  35 -7.9268354e+00 3.54e-02 1.72e+05  -6.0 1.38e+02    -  1.00e+00 7.29e-01h  1
  36r-7.9268354e+00 3.54e-02 1.00e+03  -1.7 0.00e+00    -  0.00e+00 4.37e-07R  2
  37r-7.9259690e+00 3.35e-02 1.00e+03  -1.7 3.00e+03    -  1.38e-04 5.60e-05f  1
  38 -7.9260090e+00 2.95e-02 1.12e+06  -6.0 2.62e-01    -  8.13e-01 1.19e-01h  1
  39 -7.9277088e+00 1.47e-02 4.78e+06  -6.0 1.43e+00    -  1.19e-01 5.03e-01h  1
iter    objective    inf_pr   inf_du lg(mu)  ||d||  lg(rg) alpha_du alpha_pr  ls
  40 -7.9307693e+00 1.03e-03 1.02e+02  -6.0 1.24e+00    -  7.67e-01 1.00e+00f  1
  41 -7.9368417e+00 5.88e-03 1.24e+01  -6.0 2.36e+00    -  7.72e-01 9.86e-01h  1
  42 -7.9340755e+00 7.42e-04 1.40e+02  -6.0 1.61e+00    -  7.02e-01 1.00e+00h  1
  43 -7.9383332e+00 5.15e-03 3.73e+01  -6.0 1.19e+01    -  4.23e-01 3.41e-01h  1
  44 -7.9389617e+00 6.03e-03 1.58e+00  -6.0 9.17e+00    -  9.54e-01 1.00e+00h  1
  45 -7.9391826e+00 4.45e-02 1.61e+01  -6.0 4.94e+01    -  5.64e-01 1.00e+00h  1
  46 -7.9395373e+00 3.69e-02 6.93e+02  -6.0 9.95e+01    -  6.55e-01 3.00e-01h  1
  47 -7.9413046e+00 1.01e-01 1.68e+02  -6.0 1.66e+02    -  9.45e-01 1.00e+00f  1
  48 -7.9420258e+00 8.34e-02 4.45e+03  -6.0 1.72e+02    -  4.28e-01 2.05e-01h  1
  49 -7.9457523e+00 7.54e-02 8.94e+02  -6.0 1.53e+02    -  9.69e-01 1.00e+00h  1
iter    objective    inf_pr   inf_du lg(mu)  ||d||  lg(rg) alpha_du alpha_pr  ls
  50 -7.9474177e+00 5.96e-02 1.38e+04  -6.0 1.12e+02    -  4.18e-01 2.81e-01h  1
  51 -7.9538726e+00 7.80e-02 1.78e+03  -6.0 1.19e+02    -  1.00e+00 1.00e+00h  1
  52 -7.9568983e+00 7.38e-02 8.65e+03  -6.0 1.85e+02    -  2.78e-01 2.88e-01h  1
  53 -7.9585681e+00 7.23e-02 6.68e+05  -6.0 2.62e+02    -  7.04e-01 1.20e-01h  1
  54r-7.9585681e+00 7.23e-02 1.00e+03  -1.6 0.00e+00    -  0.00e+00 1.46e-07R  2
  55r-7.9585124e+00 6.92e-02 1.00e+03  -1.6 2.82e+03    -  9.66e-05 4.30e-05f  1
  56 -7.9585237e+00 6.11e-02 3.50e+04  -6.0 4.66e-01    -  1.38e-01 1.16e-01h  1
  57 -7.9585693e+00 2.46e-02 9.38e+05  -6.0 4.35e-01    -  1.16e-01 5.98e-01h  1
  58 -7.9586304e+00 1.40e-02 5.33e+05  -6.0 2.75e-01    -  8.58e-01 4.32e-01h  1
  59 -7.9599775e+00 5.20e-04 6.74e+00  -6.0 9.76e-01    -  8.35e-01 1.00e+00h  1
iter    objective    inf_pr   inf_du lg(mu)  ||d||  lg(rg) alpha_du alpha_pr  ls
  60 -7.9624753e+00 2.99e-03 1.79e+00  -6.0 1.67e+00    -  8.60e-01 1.00e+00h  1
  61 -7.9619515e+00 6.58e-04 9.56e-02  -6.0 4.11e+00    -  9.91e-01 1.00e+00h  1
  62 -7.9618938e+00 1.90e-04 1.46e+03  -6.0 5.91e+01    -  9.85e-01 1.00e+00H  1
  63 -7.9619446e+00 2.06e-04 1.14e+03  -6.0 5.25e+01    -  9.90e-01 1.00e+00H  1
  64 -7.9619451e+00 9.03e-06 5.35e-04  -6.0 1.16e+00    -  1.00e+00 1.00e+00h  1
  65 -7.9619450e+00 4.02e-10 9.23e-09  -6.0 2.12e-03    -  1.00e+00 1.00e+00h  1
  66 -7.9620214e+00 1.15e-01 2.64e+01  -7.5 9.53e+01    -  9.63e-01 8.71e-01h  1
  67 -7.9620151e+00 2.74e-03 6.89e-02  -7.5 1.27e+01    -  1.00e+00 1.00e+00h  1
  68 -7.9620148e+00 7.01e-08 1.43e-07  -7.5 6.74e-02    -  1.00e+00 1.00e+00h  1
  69 -7.9620161e+00 1.07e-04 7.72e-01  -9.0 3.04e+00    -  9.14e-01 8.30e-01h  1
iter    objective    inf_pr   inf_du lg(mu)  ||d||  lg(rg) alpha_du alpha_pr  ls
  70 -7.9620164e+00 4.48e-06 4.98e-01  -9.0 5.17e-01    -  8.90e-01 1.00e+00f  1
  71 -7.9620164e+00 1.73e-10 4.42e-09  -9.0 1.30e-04    -  1.00e+00 1.00e+00h  1

Number of Iterations....: 71

                                   (scaled)                 (unscaled)
Objective...............:  -6.2203252975280465e+00   -7.9620163808358999e+00
Dual infeasibility......:   4.4181234978348298e-09    5.6551980772285824e-09
Constraint violation....:   1.7348766347125011e-10    1.7348766347125011e-10
Complementarity.........:   1.3455467521230004e-09    1.7222998427174406e-09
Overall NLP error.......:   4.4181234978348298e-09    5.6551980772285824e-09


Number of objective function evaluations             = 85
Number of objective gradient evaluations             = 72
Number of equality constraint evaluations            = 85
Number of inequality constraint evaluations          = 85
Number of equality constraint Jacobian evaluations   = 75
Number of inequality constraint Jacobian evaluations = 75
Number of Lagrangian Hessian evaluations             = 71
Total CPU secs in IPOPT (w/o function evaluations)   =     72.807
Total CPU secs in NLP function evaluations           =      1.429

EXIT: Optimal Solution Found.
